20
 N2C2W1_A 
 120 100 0 
99
98
98
98
97
96
94
92
91
90
90
89
86
84
82
81
81
80
80
79
79
79
77
75
73
72
71
71
71
70
67
65
65
62
61
59
56
55
55
55
55
54
54
53
52
51
50
48
48
48
47
47
46
45
44
43
43
43
43
42
42
40
39
38
38
36
34
30
30
29
27
26
26
24
22
21
21
20
19
18
18
18
15
14
13
11
9
8
7
7
6
6
6
4
4
3
3
2
1
1
 N2C2W1_B 
 120 100 0 
100
100
100
99
99
98
97
96
95
95
91
91
91
90
90
88
88
88
88
87
87
85
85
82
82
81
79
78
78
78
78
78
78
77
77
77
75
74
72
71
69
69
68
67
64
64
62
62
60
58
57
55
55
54
51
51
51
48
48
47
46
45
44
42
38
38
36
34
34
31
30
30
30
28
28
28
26
26
25
25
23
23
22
21
20
19
18
18
17
16
13
9
8
5
4
4
4
4
3
1
 N2C2W1_C 
 120 100 0 
100
100
97
97
96
95
94
91
90
89
88
84
84
84
83
82
81
80
80
80
78
73
72
72
72
69
69
66
65
65
65
65
65
64
63
63
62
60
58
58
57
54
54
53
52
51
50
49
49
48
47
46
44
42
40
40
40
39
38
37
37
35
35
33
32
31
30
30
29
28
27
27
23
21
20
20
20
19
19
19
18
17
16
16
15
14
13
12
12
12
11
10
8
7
5
5
4
3
3
1
 N2C2W1_D 
 120 100 0 
99
97
97
96
94
94
93
93
89
89
89
88
87
85
85
84
84
82
82
78
77
76
75
73
73
71
71
67
66
63
63
62
62
61
61
59
59
57
57
57
57
55
53
53
52
51
51
50
49
49
48
48
48
47
46
46
46
44
44
41
38
37
37
37
37
35
35
34
34
32
32
31
31
30
29
28
27
27
26
26
26
25
25
24
21
19
18
15
13
13
12
12
12
10
10
5
4
3
2
1
 N2C2W1_E 
 120 100 0 
100
100
99
96
94
93
92
92
92
90
90
89
89
89
87
84
82
82
82
81
80
77
77
77
77
75
73
72
71
69
68
68
64
64
62
61
58
54
53
53
53
52
52
51
51
49
49
48
48
46
45
45
44
43
42
41
40
37
37
36
35
35
34
34
33
33
33
31
29
27
24
24
23
22
21
20
18
17
17
16
15
14
14
14
13
13
13
11
11
9
8
7
7
6
4
3
1
1
1
1
 N2C2W1_F 
 120 100 0 
100
100
100
100
99
99
97
97
97
97
95
92
91
89
88
88
88
88
88
86
85
85
83
82
81
81
80
80
80
79
78
76
75
75
71
70
70
70
69
69
68
67
67
65
63
63
62
62
62
56
54
54
54
53
52
52
51
49
49
47
42
42
42
41
40
40
38
38
35
34
34
33
31
31
31
31
30
30
29
27
27
26
23
22
22
21
19
19
17
16
15
15
12
11
10
9
9
8
4
1
 N2C2W1_G 
 120 100 0 
100
100
100
99
99
98
98
96
95
94
93
91
90
90
89
89
88
86
83
83
82
81
81
80
80
80
79
79
79
76
75
74
73
73
70
70
65
63
60
59
59
58
57
55
54
54
52
52
51
51
51
50
47
47
46
45
45
45
43
42
42
41
36
35
35
35
34
33
33
29
29
29
29
29
28
24
22
22
22
22
22
20
20
20
19
18
17
17
16
15
12
11
11
9
8
6
3
1
1
1
 N2C2W1_H 
 120 100 0 
100
99
99
98
98
97
96
94
94
93
93
92
92
90
88
88
87
87
86
86
86
85
85
78
78
77
77
77
74
71
71
68
68
67
66
65
65
62
62
60
59
59
55
55
54
53
52
52
51
51
50
49
49
48
47
46
46
46
45
45
45
42
42
41
41
40
38
36
36
34
33
32
32
32
31
29
27
23
22
22
21
21
20
18
16
15
11
10
10
9
9
8
6
6
5
5
4
3
1
1
 N2C2W1_I 
 120 100 0 
100
100
99
98
97
96
96
96
93
93
92
91
88
87
86
85
84
82
82
79
79
79
77
77
76
72
71
71
70
68
67
66
66
65
64
64
63
63
62
62
62
62
61
60
59
59
58
57
56
55
55
54
51
51
50
50
48
47
47
46
46
46
45
44
41
41
38
37
35
33
32
31
29
29
29
28
28
27
26
25
25
22
19
19
18
18
13
11
10
10
9
6
5
5
4
3
3
2
1
1
 N2C2W1_J 
 120 100 0 
100
100
99
98
97
96
95
93
87
87
86
85
85
85
84
83
82
82
81
80
80
79
79
77
75
75
75
72
72
70
69
69
66
66
66
63
62
62
61
61
60
57
57
57
55
53
52
52
48
48
47
46
43
43
42
41
41
40
40
38
37
37
37
36
34
32
31
31
31
30
29
29
28
28
26
26
26
25
24
22
19
16
16
15
15
14
14
13
9
9
8
7
6
6
5
4
4
4
3
1
 N2C2W1_K 
 120 100 0 
100
100
97
96
95
95
93
93
92
90
90
90
89
88
88
87
85
84
82
78
78
78
78
77
74
74
70
69
68
67
67
66
66
65
61
60
60
59
57
56
55
55
54
54
52
52
51
51
50
50
49
48
48
48
47
44
43
41
41
40
39
37
37
32
32
31
30
30
29
28
27
26
25
24
24
24
23
23
22
21
19
18
18
17
16
15
14
12
10
10
8
6
5
4
3
3
2
2
2
1
 N2C2W1_L 
 120 100 0 
100
100
100
99
99
99
98
98
96
96
95
95
95
94
94
93
92
90
90
88
87
85
85
85
82
81
81
80
80
80
76
76
76
75
73
73
73
73
72
71
71
68
68
64
64
64
61
60
59
58
57
57
56
51
51
50
49
47
45
45
45
44
42
40
38
38
36
36
36
35
34
33
30
30
29
29
28
28
27
23
22
20
20
19
17
16
16
11
11
9
8
8
7
7
5
5
3
2
2
1
 N2C2W1_M 
 120 100 0 
98
97
95
93
93
92
92
92
91
90
89
89
89
88
86
84
84
84
83
83
82
82
81
81
79
78
77
75
73
72
72
71
71
70
69
68
65
65
64
64
62
61
60
57
55
55
53
51
51
50
50
50
48
46
45
42
42
41
41
41
41
41
40
39
39
37
36
35
34
33
33
33
30
30
29
27
25
23
23
23
23
19
19
16
16
14
14
14
14
12
12
10
8
8
7
7
6
5
3
3
 N2C2W1_N 
 120 100 0 
99
99
96
96
95
93
92
89
89
88
87
85
81
80
80
78
77
77
76
75
74
72
71
71
70
70
69
69
67
67
67
65
65
65
65
64
62
62
59
59
59
58
58
56
56
56
56
55
55
54
52
50
50
49
49
48
47
45
43
43
43
41
40
39
38
38
37
36
36
36
35
35
35
30
30
29
26
26
26
26
24
24
23
23
17
17
17
15
13
13
12
11
11
11
6
5
4
4
3
1
 N2C2W1_O 
 120 100 0 
98
97
97
97
97
94
93
93
93
92
91
91
90
89
89
88
87
87
87
85
84
84
83
83
82
81
81
81
81
78
76
76
75
75
74
73
70
69
68
68
68
66
65
64
64
63
59
58
57
56
56
52
51
51
50
49
48
48
47
47
46
46
45
45
44
44
43
43
42
40
40
40
37
33
31
30
29
28
26
25
25
24
19
19
19
19
17
16
16
15
15
14
13
12
12
7
4
2
1
1
 N2C2W1_P 
 120 100 0 
99
99
99
99
99
96
96
96
95
94
93
93
91
91
91
89
87
87
86
86
85
85
84
83
82
82
81
81
76
75
75
74
72
68
68
66
65
64
64
64
63
61
61
60
60
59
58
56
56
56
55
55
54
54
52
51
51
46
44
43
41
40
39
39
39
39
38
37
37
36
36
35
33
29
28
27
26
23
23
21
17
17
14
13
11
11
10
10
10
9
9
9
8
6
6
4
4
3
3
2
 N2C2W1_Q 
 120 100 0 
98
98
98
98
96
93
92
91
90
89
87
87
86
86
85
84
83
83
81
78
78
78
78
78
78
77
72
72
71
70
70
70
69
68
67
65
65
64
64
64
63
63
62
62
62
62
61
61
60
60
59
59
58
57
57
56
56
56
55
54
51
50
49
49
47
46
46
39
39
38
38
34
33
32
30
30
29
28
27
26
24
23
23
22
22
22
20
18
18
15
12
9
6
6
5
3
3
2
2
2
 N2C2W1_R 
 120 100 0 
98
97
94
94
93
91
90
89
89
89
88
86
86
84
83
80
79
78
77
75
75
72
71
70
69
67
66
65
64
64
62
61
60
60
60
59
57
56
56
56
56
56
55
55
55
54
51
50
50
49
49
49
48
47
47
46
44
43
42
40
40
37
37
36
36
36
36
34
33
33
32
32
30
30
28
28
25
25
24
24
24
22
22
21
20
19
17
16
13
12
10
9
6
5
5
4
3
3
2
1
 N2C2W1_S 
 120 100 0 
99
98
97
96
95
94
93
93
91
90
89
88
87
87
86
86
85
84
83
82
79
79
78
77
77
77
77
73
73
72
71
71
70
68
67
63
63
62
61
61
61
61
60
59
57
56
52
51
49
48
47
47
47
46
45
44
44
44
44
43
43
42
42
39
39
39
34
33
33
32
31
31
28
28
27
25
25
24
24
24
24
22
21
20
18
17
17
16
14
14
13
10
10
9
9
7
7
7
7
6
 N2C2W1_T 
 120 100 0 
100
99
99
98
98
95
94
94
91
90
89
87
84
80
80
77
75
74
73
73
72
72
72
69
69
65
64
63
62
62
59
59
59
59
59
59
57
56
53
53
51
51
51
50
50
50
49
49
48
47
47
47
47
44
44
43
43
40
39
38
37
36
34
34
32
30
29
29
27
23
23
23
21
18
18
18
18
17
16
16
16
15
15
14
12
12
11
10
10
9
8
8
7
7
5
4
4
4
2
1
